Version identifier: 22.1.1.0 | 2022-11-28 | 9160aff4d
CPXPARAM_ClockType                               1
CPXPARAM_Read_DataCheck                          1
CPXPARAM_Threads                                 1
CPXPARAM_Simplex_Tolerances_Optimality           1.0000000000000001e-09
CPXPARAM_TimeLimit                               7200
CPXPARAM_MIP_Tolerances_AbsMIPGap                0
CPXPARAM_MIP_Tolerances_MIPGap                   0
CPXPARAM_MIP_Tolerances_Integrality              0
Tried aggregator 5 times.
MIQP Presolve eliminated 22349 rows and 3948 columns.
MIQP Presolve modified 628 coefficients.
Aggregator did 3519 substitutions.
Reduced MIQP has 67172 rows, 20063 columns, and 218407 nonzeros.
Reduced MIQP has 17992 binaries, 2071 generals, 0 SOSs, and 0 indicators.
Reduced MIQP objective Q matrix has 2071 nonzeros.
Presolve time = 0.62 sec. (327.58 ticks)
Probing fixed 121 vars, tightened 165 bounds.
Probing changed sense of 31 constraints.
Probing time = 0.48 sec. (140.36 ticks)
Tried aggregator 3 times.
MIQP Presolve eliminated 1782 rows and 364 columns.
MIQP Presolve modified 288 coefficients.
Aggregator did 135 substitutions.
Reduced MIQP has 65255 rows, 19564 columns, and 212415 nonzeros.
Reduced MIQP has 17526 binaries, 2038 generals, 0 SOSs, and 0 indicators.
Reduced MIQP objective Q matrix has 2038 nonzeros.
Presolve time = 0.83 sec. (408.03 ticks)
Classifier predicts products in MIQP should be linearized.
Probing time = 0.02 sec. (7.34 ticks)
Clique table members: 101918.
MIP emphasis: balance optimality and feasibility.
MIP search method: dynamic search.
Parallel mode: none, using 1 thread.
Root relaxation solution time = 62.02 sec. (113085.61 ticks)

        Nodes                                         Cuts/
   Node  Left     Objective  IInf  Best Integer    Best Bound    ItCnt     Gap

      0     0    12697.8894 10740                  12697.8894       51         
      0     0    12379.7727 10926               Cliques: 1337     5549         
      0     0        cutoff                                     314499         
Elapsed time = 3231.41 sec. (1179315.97 ticks, tree = 0.01 MB, solutions = 0)

Clique cuts applied:  2517
Implied bound cuts applied:  7
Zero-half cuts applied:  147

Root node processing (before b&c):
  Real time             = 3231.41 sec. (1179316.03 ticks)
Sequential b&c:
  Real time             =    0.00 sec. (0.00 ticks)
                          ------------
Total (root+branch&cut) = 3231.41 sec. (1179316.03 ticks)
Solution is infeasible.

---------------------
@@@ MIP_infeasible
Traceback (most recent call last):
  File "/scratch/scherif/DiverseSAT-journal_sup/DiverseSAT_Supplementary_Experiments/experiment-1/cplex/jobs/../solvers/CPLEX-QP-SE.py", line 118, in <module>
    print(f">>> Benchmark {os.path.basename(cnf_file)} k {k} OPT {int(prob.solution.get_objective_value())}"
  File "/users/scherif/.local/lib/python3.9/site-packages/cplex/_internal/_subinterfaces.py", line 7211, in get_objective_value
    return CPX_PROC.getobjval(self._env._e, self._cplex._lp)
  File "/users/scherif/.local/lib/python3.9/site-packages/cplex/_internal/_procedural.py", line 2055, in getobjval
    check_status(env, status)
  File "/users/scherif/.local/lib/python3.9/site-packages/cplex/_internal/_procedural.py", line 249, in __call__
    raise CplexSolverError(error_string, env, status)
cplex.exceptions.errors.CplexSolverError: CPLEX Error  1217: No solution exists.
